c IN1002 Introduction to Algorithms!
c top secret ID string c8477513c32
c 12 variables and 50 clauses
p cnf 12 50
c each line is a clause, 0 marks the end
4 11 5 0
-6 -2 -4 0
-3 2 8 0
-7 -10 -11 0
-7 11 0
1 -8 -9 0
11 2 -11 0
-8 5 -3 0
-7 -3 -8 0
-5 -7 4 0
6 11 4 0
-5 -11 9 0
6 3 6 0
11 7 7 0
-9 5 -4 0
6 9 0
4 3 0
10 -7 -11 0
-7 4 -6 0
9 12 -5 0
8 3 8 0
-10 6 6 0
10 -4 -1 0
8 -8 -4 0
-12 9 4 0
6 8 -7 0
-5 8 -3 0
12 4 -6 0
-7 -8 -10 0
-6 -1 12 0
9 -6 -9 0
2 12 -12 0
12 1 10 0
-9 9 12 0
-11 8 0
9 8 -5 0
-8 5 6 0
6 4 -2 0
12 11 4 0
-8 -8 -10 0
-9 -12 -1 0
-3 4 0
-3 5 -12 0
-3 8 11 0
-4 12 1 0
-9 8 -4 0
-2 -11 -12 0
-6 8 7 0
6 9 5 0
-3 -12 12 0
c Good luck!
